NAME : XML100_1165_26
DIMENSION : 101
NB_CLUSTERS : 26
CLUSTERING_ALG : KMeans
CLUSTERING_PARAMS : k(26)
CLUSTERS
1 0
2 3 41 88 95
3 2 10 25 52 59 60
4 5 8 72 85
5 4 20 32 46 53 87
6 9 83
7 13 30 68 73 93
8 24 33 35 44 51 69
9 14 42 94 98
10 18 37 43 58 91
11 21 27 77 92 100
12 7 70 99
13 31 61 75
14 6 55
15 65 74 90
16 36 54 86
17 17 28 34 64
18 16 39 40 67 78
19 45 48 96
20 11 29 49 84
21 22 47 89
22 57 81 82
23 15 50 56 71
24 1 12 19 62 66
25 26 38 63 80
26 23 76 79 97
EOF